WARNING: for repeatability, setting FPU to use double precision
============================[ Problem Statistics ]=============================
|                                                                             |
|  Number of variables:           100                                         |
|  Number of clauses:             449                                         |
|  Parse time:                   0.00 s                                       |
|  Eliminated clauses:           0.00 Mb                                      |
|  Simplification time:          0.00 s                                       |
|                                                                             |
============================[ Search Statistics ]==============================
| Conflicts |          ORIGINAL         |          LEARNT          | Progress |
|           |    Vars  Clauses Literals |    Limit  Clauses Lit/Cl |          |
===============================================================================
|       100 |      98      447     1354 |      163      100      7 |  0.010 % |
===============================================================================
restarts              : 3
conflicts             : 232            (73302 /sec)
decisions             : 307            (0.00 % random) (96998 /sec)
propagations          : 5252           (1659400 /sec)
conflict literals     : 1504           (18.13 % deleted)
Memory used           : 13.00 MB
CPU time              : 0.003165 s

SATISFIABLE
